letting n =  10
letting blocks =  [[2, 3], [2, 4], [2, 5], [2, 6], [3, 2], [3, 3], [3, 5], [4, 6], [4, 8], [5, 10], [6, 2], [6, 3], [6, 4], [6, 5], [6, 10], [8, 3], [8, 4], [8, 6], [8, 7], [8, 8], [9, 1], [9, 7], [9, 9], [10, 2], [10, 3], [10, 5]]
